
******************************************************************************
This program contains Ipopt, a library for large-scale nonlinear optimization.
 Ipopt is released as open source code under the Eclipse Public License (EPL).
         For more information visit http://projects.coin-or.org/Ipopt
******************************************************************************

This is Ipopt version 3.12.6, running with linear solver ma57.

Number of nonzeros in equality constraint Jacobian...:        0
Number of nonzeros in inequality constraint Jacobian.:    34993
Number of nonzeros in Lagrangian Hessian.............:    19998

Total number of variables............................:    10000
                     variables with only lower bounds:        0
                variables with lower and upper bounds:        0
                     variables with only upper bounds:        0
Total number of equality constraints.................:        0
Total number of inequality constraints...............:     4999
        inequality constraints with only lower bounds:        0
   inequality constraints with lower and upper bounds:        0
        inequality constraints with only upper bounds:     4999

iter    objective    inf_pr   inf_du lg(mu)  ||d||  lg(rg) alpha_du alpha_pr  ls
   0  4.3329091e+06 2.20e+01 1.00e+02  -1.0 0.00e+00    -  0.00e+00 0.00e+00   0
   1  2.9387614e+06 1.05e+01 5.26e+01  -1.0 9.57e-01   2.0 9.94e-01 1.00e+00f  1
   2  8.3673200e+05 7.78e+00 3.85e+01  -1.0 9.51e+01    -  4.37e-01 3.02e-01f  1
   3  6.2565309e+05 7.41e+00 3.66e+01  -1.0 3.43e+01    -  6.40e-01 4.84e-02f  1
   4 -5.5832617e+05 4.78e+00 2.43e+01  -1.0 3.42e+01    -  5.62e-01 3.89e-01f  1
   5 -1.0777835e+06 2.45e+00 1.42e+01  -1.0 1.37e+01    -  6.68e-01 4.89e-01f  1
   6 -1.2098093e+06 6.23e-01 2.08e+01  -1.0 3.87e-01   1.5 1.00e+00 1.00e+00f  1
   7 -1.2274246e+06 4.73e-01 2.83e+01  -1.0 7.70e-01   1.0 6.20e-01 8.27e-01f  1
   8 -1.2162948e+06 4.54e-01 1.58e+01  -1.0 8.99e-01   0.6 1.00e+00 1.00e+00h  1
   9 -1.2126604e+06 0.00e+00 7.89e+00  -1.0 4.11e-01   1.0 1.00e+00 1.00e+00h  1
iter    objective    inf_pr   inf_du lg(mu)  ||d||  lg(rg) alpha_du alpha_pr  ls
  10 -1.2157737e+06 0.00e+00 8.85e+01  -1.0 1.48e+00   1.4 1.00e+00 1.00e+00f  1
  11 -1.2168284e+06 0.00e+00 1.06e+02  -1.0 1.87e-01   2.7 1.00e+00 1.00e+00f  1
  12 -1.2286851e+06 0.00e+00 2.49e+02  -1.0 1.17e+00   2.3 1.00e+00 1.00e+00f  1
  13 -1.2416283e+06 0.00e+00 3.68e+02  -1.0 7.14e-01   2.7 1.00e+00 1.00e+00f  1
  14 -1.2491653e+06 0.00e+00 4.29e+02  -1.0 3.20e-01   3.1 1.00e+00 1.00e+00f  1
  15 -1.3131480e+06 0.00e+00 8.40e+02  -1.0 1.74e+00   2.6 1.00e+00 1.00e+00f  1
  16 -1.3664633e+06 0.00e+00 1.11e+03  -1.0 9.25e-01   3.1 1.00e+00 1.00e+00f  1
  17 -5.7544494e+06 0.00e+00 1.07e+04  -1.0 1.46e+01   2.6 1.00e+00 1.00e+00f  1
  18 -2.6784757e+09 0.00e+00 7.49e+05  -1.0 1.60e+02   3.0 1.00e+00 1.00e+00f  1
  19 -5.7672731e+09 0.00e+00 1.25e+06  -1.0 5.28e+01   4.4 1.00e+00 1.00e+00f  1
iter    objective    inf_pr   inf_du lg(mu)  ||d||  lg(rg) alpha_du alpha_pr  ls
  20 -7.8552885e+09 0.00e+00 1.53e+06  -1.0 2.54e+01   4.8 1.00e+00 1.00e+00f  1
  21 -4.0561763e+10 0.00e+00 4.59e+06  -1.0 1.89e+02   4.3 1.00e+00 1.00e+00f  1
  22 -9.1641835e+10 0.00e+00 7.90e+06  -1.0 1.40e+02   4.7 1.00e+00 1.00e+00f  1
  23 -1.2759063e+11 0.00e+00 9.84e+06  -1.0 6.86e+01   5.2 1.00e+00 1.00e+00f  1
  24 -8.2714723e+11 0.00e+00 3.42e+07  -1.0 5.68e+02   4.7 1.00e+00 1.00e+00f  1
  25 -2.2585924e+12 0.00e+00 6.69e+07  -1.0 4.87e+02   5.1 1.00e+00 1.00e+00f  1
  26 -3.4459861e+12 0.00e+00 8.86e+07  -1.0 2.59e+02   5.5 1.00e+00 1.00e+00f  1
  27 -9.5385274e+13 0.00e+00 8.11e+08  -1.0 3.99e+03   5.0 1.00e+00 1.00e+00f  1
  28 -2.1012674e+16 0.00e+00 2.96e+10  -1.0 3.00e+04   5.5 1.00e+00 1.00e+00f  1
  29 -3.3952253e+16 0.00e+00 4.07e+10  -1.0 6.25e+03   6.8 1.00e+00 1.00e+00f  1
iter    objective    inf_pr   inf_du lg(mu)  ||d||  lg(rg) alpha_du alpha_pr  ls
  30 -6.8197499e+18 0.00e+00 1.40e+12  -1.0 2.05e+05   6.3 1.00e+00 1.00e+00f  1
  31 -1.0802223e+19 0.00e+00 1.90e+12  -1.0 4.10e+04   7.7 1.00e+00 1.00e+00f  1
  32 -8.9410072e+20 0.00e+00 3.60e+13  -1.0 9.69e+05   7.2 1.00e+00 1.00e+00f  1
  33 -1.2166319e+21 0.00e+00 4.43e+13  -1.0 1.36e+05   8.5 1.00e+00 1.00e+00f  1
  34 -6.2210938e+21 0.00e+00 1.31e+14  -1.0 1.01e+06   8.0 1.00e+00 1.00e+00f  1
  35 -1.3950668e+22 0.00e+00 2.25e+14  -1.0 7.41e+05   8.5 1.00e+00 1.00e+00f  1
  36 -1.9356168e+22 0.00e+00 2.80e+14  -1.0 3.62e+05   8.9 1.00e+00 1.00e+00f  1
  37 -1.2081042e+23 0.00e+00 9.49e+14  -1.0 2.95e+06   8.4 1.00e+00 1.00e+00f  1
  38 -3.1880829e+23 0.00e+00 1.81e+15  -1.0 2.46e+06   8.8 1.00e+00 1.00e+00f  1
  39 -4.7815292e+23 0.00e+00 2.38e+15  -1.0 1.29e+06   9.3 1.00e+00 1.00e+00f  1
iter    objective    inf_pr   inf_du lg(mu)  ||d||  lg(rg) alpha_du alpha_pr  ls
  40 -9.2005854e+24 0.00e+00 1.71e+16  -1.0 1.71e+07   8.8 1.00e+00 1.00e+00f  1
  41 -1.8433520e+26 0.00e+00 1.26e+17  -1.0 4.69e+07   9.2 1.00e+00 1.00e+00f  1
  42 -4.3406951e+27 0.00e+00 1.03e+18  -1.0 1.39e+08   9.6 1.00e+00 1.00e+00f  1
  43 -2.3512649e+29 0.00e+00 1.48e+19  -1.0 5.93e+08  10.1 1.00e+00 1.00e+00f  1
  44 -3.0322363e+29 0.00e+00 1.75e+19  -1.0 7.13e+07  11.4 1.00e+00 1.00e+00f  1
  45 -9.8750127e+29 0.00e+00 3.85e+19  -1.0 4.23e+08  10.9 1.00e+00 1.00e+00f  1
  46 -1.6543333e+30 0.00e+00 5.43e+19  -1.0 2.44e+08  11.3 1.00e+00 1.00e+00f  1
  47 -1.0630197e+34 0.00e+00 1.88e+22  -1.0 2.71e+10  10.9 1.00e+00 1.00e+00f  1
  48 -5.7231524e+35 0.00e+00 2.68e+23  -1.0 7.97e+10  12.2 1.00e+00 1.00e+00f  1
  49 -7.3754984e+35 0.00e+00 3.17e+23  -1.0 9.56e+09  13.5 1.00e+00 1.00e+00f  1
iter    objective    inf_pr   inf_du lg(mu)  ||d||  lg(rg) alpha_du alpha_pr  ls
  50 -2.3896488e+36 0.00e+00 6.94e+23  -1.0 5.66e+10  13.0 1.00e+00 1.00e+00f  1
  51 -3.9918790e+36 0.00e+00 9.77e+23  -1.0 3.25e+10  13.5 1.00e+00 1.00e+00f  1
  52 -1.5535854e+40 0.00e+00 2.42e+26  -1.0 3.05e+12  13.0 1.00e+00 1.00e+00f  1
  53 -1.7529154e+41 0.00e+00 1.22e+27  -1.0 4.05e+12  14.3 1.00e+00 1.00e+00f  1
  54 -9.3842287e+41 0.00e+00 3.72e+27  -1.0 5.47e+12  14.7 1.00e+00 1.00e+00f  1
  55 -2.1798189e+42 0.00e+00 6.53e+27  -1.0 4.14e+12  15.2 1.00e+00 1.00e+00f  1
  56 -3.0742859e+42 0.00e+00 8.21e+27  -1.0 2.05e+12  15.6 1.00e+00 1.00e+00f  1
  57 -2.3131818e+43 0.00e+00 3.15e+28  -1.0 1.82e+13  15.1 1.00e+00 1.00e+00f  1
  58 -7.3074507e+43 0.00e+00 6.79e+28  -1.0 1.74e+13  15.5 1.00e+00 1.00e+00f  1
  59 -1.2037842e+44 0.00e+00 9.47e+28  -1.0 9.88e+12  16.0 1.00e+00 1.00e+00f  1
iter    objective    inf_pr   inf_du lg(mu)  ||d||  lg(rg) alpha_du alpha_pr  ls
  60 -9.0520462e+46 0.00e+00 7.83e+30  -1.0 5.21e+14  15.5 1.00e+00 1.00e+00f  1
  61 -2.1554868e+47 0.00e+00 1.40e+31  -1.0 1.96e+14  16.8 1.00e+00 1.00e+00f  1
  62 -3.0756723e+47 0.00e+00 1.77e+31  -1.0 9.84e+13  17.2 1.00e+00 1.00e+00f  1
  63 -2.6790679e+48 0.00e+00 7.49e+31  -1.0 9.32e+14  16.8 1.00e+00 1.00e+00f  1
  64 -9.9797557e+48 0.00e+00 1.80e+32  -1.0 9.97e+14  17.2 1.00e+00 1.00e+00f  1
  65 -1.8074978e+49 0.00e+00 2.68e+32  -1.0 6.15e+14  17.6 1.00e+00 1.00e+00f  1
  66 -2.2823723e+49 0.00e+00 3.13e+32  -1.0 2.77e+14  18.1 1.00e+00 1.00e+00f  1
  67 -6.4170536e+49 0.00e+00 6.23e+32  -1.0 1.52e+15  17.6 1.00e+00 1.00e+00f  1
  68 -9.9376324e+49 0.00e+00 8.33e+32  -1.0 8.20e+14  18.0 1.00e+00 1.00e+00f  1
  69 -4.0026014e+51 0.00e+00 9.79e+33  -1.0 1.47e+16  17.5 1.00e+00 1.00e+00f  1
iter    objective    inf_pr   inf_du lg(mu)  ||d||  lg(rg) alpha_du alpha_pr  ls
  70 -4.9982846e+51 0.00e+00 1.14e+34  -1.0 1.59e+15  18.9 1.00e+00 1.00e+00f  1
  71 -1.3075218e+52 0.00e+00 2.16e+34  -1.0 8.43e+15  18.4 1.00e+00 1.00e+00f  1
  72 -1.9525496e+52 0.00e+00 2.82e+34  -1.0 4.40e+15  18.8 1.00e+00 1.00e+00f  1
  73 -3.4581037e+53 0.00e+00 1.91e+35  -1.0 5.65e+16  18.3 1.00e+00 1.00e+00f  1
  74 -5.1763510e+54 0.00e+00 1.16e+36  -1.0 1.34e+17  18.7 1.00e+00 1.00e+00f  1
  75 -4.8456087e+55 0.00e+00 5.16e+36  -1.0 2.50e+17  19.2 1.00e+00 1.00e+00f  1
  76 -1.9762549e+56 0.00e+00 1.32e+37  -1.0 2.84e+17  19.6 1.00e+00 1.00e+00f  1
  77 -4.0043796e+56 0.00e+00 2.11e+37  -1.0 2.02e+17  20.0 1.00e+00 1.00e+00f  1
  78 -1.0775724e+57 0.00e+00 4.08e+37  -1.0 3.76e+17  20.0 1.00e+00 1.00e+00f  1
  79 -6.1090182e+57 0.00e+00 1.30e+38  -1.0 1.05e+18  20.0 1.00e+00 1.00e+00f  1
WARNING: Problem in step computation; switching to emergency mode.
Restoration phase is called at point that is almost feasible,
  with constraint violation 6.788181e-13. Abort.

Number of Iterations....: 79

                                   (scaled)                 (unscaled)
Objective...............:  -1.0321728403693681e+56   -6.1090181730101428e+57
Dual infeasibility......:   1.2980379231499577e+38    7.6825672519553404e+39
Constraint violation....:   0.0000000000000000e+00    0.0000000000000000e+00
Complementarity.........:   1.0000000000000002e-01    5.9186000000000014e+00
Overall NLP error.......:   7.1494361433373750e+37    7.6825672519553404e+39


Number of objective function evaluations             = 80
Number of objective gradient evaluations             = 80
Number of equality constraint evaluations            = 0
Number of inequality constraint evaluations          = 80
Number of equality constraint Jacobian evaluations   = 0
Number of inequality constraint Jacobian evaluations = 80
Number of Lagrangian Hessian evaluations             = 80
Total CPU secs in IPOPT (w/o function evaluations)   =      1.560
Total CPU secs in NLP function evaluations           =      0.827

EXIT: Restoration Failed!
Note: The following floating-point exceptions are signalling: IEEE_UNDERFLOW_FLAG IEEE_DENORMAL

************************ CUTEst statistics ************************


 Package used            :  IPOPT
 Problem                 :  LUKVLI2   
 # variables             =           10000
 # constraints           =            4999
 # objective functions   =        0.1610000E+03
 # objective gradients   =        0.8100000E+02
 # objective Hessians    =        0.8100000E+02
 # Hessian-vector prdct  =        0.0000000E+00
 # constraints functions =        0.1620000E+03
 # constraints gradients =        0.8200000E+02
 # constraints Hessians  =        0.8100000E+02
 Exit code               =              -2
 Final f                 =  -0.6109018E+58
 Set up time             =            0.35 seconds
 Solve time              =            2.40 seconds


******************************************************************

System Time =       2.4000000954 s.
